problem_generation/data/GISP/train/er_n=63_m=1187_p=0.60_SET2_setparam=100.00_alpha=0.50_375.lp
maximize
OBJ:100x0 + 100x1 + 100x2 + 100x3 + 100x4 + 100x5 + 100x6 + 100x7 + 100x8 + 100x9 + 100x10 + 100x11 + 100x12 + 100x13 + 100x14 + 100x15 + 100x16 + 100x17 + 100x18 + 100x19 + 100x20 + 100x21 + 100x22 + 100x23 + 100x24 + 100x25 + 100x26 + 100x27 + 100x28 + 100x29 + 100x30 + 100x31 + 100x32 + 100x33 + 100x34 + 100x35 + 100x36 + 100x37 + 100x38 + 100x39 + 100x40 + 100x41 + 100x42 + 100x43 + 100x44 + 100x45 + 100x46 + 100x47 + 100x48 + 100x49 + 100x50 + 100x51 + 100x52 + 100x53 + 100x54 + 100x55 + 100x56 + 100x57 + 100x58 + 100x59 + 100x60 + 100x61 + 100x62 - y47_53 - y15_39 - y26_39 - y7_35 - y18_44 - y8_9 - y40_41 - y0_14 - y29_50 - y21_46 - y0_23 - y6_57 - y40_59 - y21_55 - y33_38 - y10_45 - y2_41 - y25_43 - y2_50 - y14_15 - y25_52 - y2_59 - y3_24 - y32_60 - y22_46 - y3_42 - y15_16 - y55_61 - y47_57 - y9_49 - y28_62 - y29_36 - y21_32 - y21_41 - y10_31 - y2_45 - y25_47 - y22_23 - y13_60 - y28_39 - y36_52 - y47_52 - y5_46 - y47_61 - y6_29 - y29_40 - y6_47 - y10_26 - y54_60 - y33_37 - y2_31 - y2_40 - y25_42 - y32_41 - y22_27 - y14_23 - y13_55 - y24_55 - y35_55 - y16_51 - y17_25 - y36_38 - y17_34 - y28_34 - y9_30 - y28_43 - y47_56 - y9_48 - y28_61 - y9_57 - y21_22 - y50_58 - y40_44 - y21_40 - y6_51 - y39_57 - y23_58 - y2_35 - y24_32 - y32_45 - y24_41 - y3_18 - y14_18 - y16_37 - y13_50 - y32_54 - y43_54 - y16_46 - y1_57 - y24_59 - y35_59 - y16_55 - y17_29 - y28_29 - y9_25 - y9_34 - y5_54 - y17_56 - y9_52 - y29_30 - y50_62 - y6_46 - y20_48 - y31_48 - y3_4 - y4_58 - y13_45 - y24_54 - y35_54 - y9_11 - y16_59 - y36_37 - y5_31 - y17_42 - y5_49 - y6_14 - y9_47 - y42_53 - y8_60 - y39_47 - y39_56 - y31_52 - y4_44 - y23_57 - y16_18 - y24_31 - y32_44 - y16_27 - y24_40 - y24_49 - y17_19 - y38_51 - y38_60 - y49_60 - y6_9 - y27_50 - y19_46 - y42_48 - y27_59 - y8_55 - y19_55 - y30_55 - y0_60 - y11_60 - y39_42 - y12_34 - y2_11 - y4_30 - y31_56 - y12_52 - y1_15 - y23_52 - y32_39 - y34_58 - y1_33 - y13_35 - y35_44 - y1_51 - y5_21 - y38_55 - y7_58 - y6_13 - y19_32 - y27_45 - y42_43 - y19_50 - y0_46 - y11_46 - y19_59 - y0_55 - y12_29 - y20_42 - y23_47 - y4_43 - y45_53 - y1_28 - y24_30 - y56_62 - y1_37 - y37_58 - y26_48 - y49_50 - y38_59 - y49_59 - y7_53 - y18_53 - y27_31 - y8_27 - y19_27 - y19_36 - y50_51 - y0_32 - y8_45 - y30_45 - y27_58 - y8_54 - y12_15 - y4_11 - y0_59 - y11_59 - y12_24 - y20_37 - y31_37 - y39_41 - y23_33 - y4_29 - y12_42 - y4_38 - y34_39 - y4_47 - y53_61 - y37_44 - y3_51 - y16_30 - y3_60 - y14_60 - y46_58 - y57_58 - y26_52 - y49_54 - y18_48 - y15_61 - y7_57 - y19_22 - y8_31 - y19_31 - y0_27 - y27_53 - y0_36 - y19_49 - y11_45 - y41_46 - y20_23 - y41_55 - y1_18 - y53_56 - y22_50 - y3_46 - y22_59 - y15_29 - y5_6 - y7_25 - y15_38 - y18_43 - y15_56 - y18_52 - y27_30 - y11_13 - y19_26 - y48_62 - y0_22 - y11_22 - y19_35 - y8_44 - y19_44 - y30_44 - y12_14 - y4_10 - y4_19 - y10_53 - y25_51 - y1_4 - y22_36 - y14_41 - y22_54 - y14_50 - y15_24 - y18_29 - y26_42 - y7_38 - y18_47 - y40_53 - y0_26 - y29_62 - y0_35 - y41_45 - y4_5 - y41_54 - y10_57 - y33_59 - y34_51 - y45_51 - y3_45 - y15_19 - y7_15 - y26_28 - y7_24 - y36_60 - y47_60 - y7_33 - y18_33 - y0_3 - y29_48 - y48_61 - y11_21 - y10_34 - y25_32 - y10_43 - y33_45 - y2_39 - y10_52 - y44_54 - y3_13 - y51_62 - y2_57 - y3_22 - y3_31 - y14_31 - y14_40 - y14_49 - y15_23 - y55_59 - y15_32 - y7_37 - y9_56 - y18_37 - y8_11 - y21_39 - y0_16 - y40_61 - y21_57 - y10_20 - y10_38 - y33_40 - y10_47 - y33_49 - y25_54 - y14_17 - y22_30 - y2_61 - y32_62 - y13_58 - y24_58 - y3_35 - y15_18 - y17_46 - y7_23 - y18_23 - y47_59 - y9_51 - y5_62 - y6_27 - y6_36 - y48_51 - y21_34 - y6_45 - y29_47 - y21_52 - y2_20 - y33_35 - y25_31 - y10_42 - y33_44 - y2_38 - y25_40 - y3_12 - y22_25 - y51_61 - y2_56 - y3_21 - y24_53 - y1_60 - y7_9 - y36_45 - y55_58 - y9_37 - y28_50 - y5_57 - y6_22 - y17_59 - y9_55 - y6_31 - y29_33 - y29_42 - y40_42 - y2_15 - y2_24 - y25_26 - y2_33 - y13_39 - y14_16 - y13_57 - y24_57 - y16_62 - y17_36 - y36_49 - y47_49 - y5_52 - y17_54 - y9_50 - y6_44 - y20_46 - y10_23 - y39_59 - y2_19 - y20_55 - y54_57 - y12_51 - y23_51 - y2_37 - y4_56 - y24_34 - y3_11 - y24_43 - y35_43 - y13_52 - y17_22 - y9_18 - y5_29 - y9_54 - y50_55 - y21_28 - y6_39 - y42_60 - y20_41 - y54_61 - y12_55 - y13_29 - y24_29 - y4_60 - y16_25 - y13_38 - y16_52 - y9_13 - y57_62 - y49_58 - y17_35 - y28_44 - y6_16 - y27_57 - y8_53 - y30_53 - y19_62 - y39_40 - y31_36 - y39_49 - y2_9 - y20_45 - y13_24 - y53_60 - y4_55 - y32_37 - y24_33 - y1_40 - y13_42 - y35_42 - y1_49 - y24_51 - y35_51 - y5_10 - y9_17 - y5_28 - y6_20 - y8_39 - y19_39 - y19_48 - y30_48 - y27_61 - y0_62 - y12_27 - y2_4 - y4_23 - y12_36 - y1_8 - y31_58 - y12_54 - y34_60 - y13_37 - y24_37 - y1_44 - y38_39 - y9_12 - y15_55 - y38_57 - y49_57 - y27_38 - y8_34 - y8_43 - y19_43 - y27_56 - y11_39 - y30_43 - y8_52 - y19_52 - y42_45 - y60_62 - y12_22 - y4_18 - y12_31 - y31_44 - y4_36 - y1_12 - y13_14 - y4_45 - y45_46 - y4_54 - y37_60 - y5_9 - y46_47 - y15_41 - y26_41 - y38_43 - y46_56 - y9_16 - y15_50 - y49_52 - y7_46 - y18_55 - y19_20 - y8_29 - y19_29 - y0_25 - y30_38 - y11_43 - y20_21 - y12_26 - y4_31 - y23_44 - y34_41 - y1_16 - y13_18 - y1_25 - y45_59 - y56_59 - y14_53 - y26_27 - y26_36 - y46_51 - y18_50 - y48_60 - y0_20 - y19_33 - y0_29 - y8_42 - y19_51 - y20_25 - y60_61 - y4_17 - y44_53 - y1_2 - y53_58 - y34_54 - y14_57 - y7_18 - y15_31 - y26_31 - y15_40 - y26_40 - y7_45 - y0_6 - y8_19 - y11_24 - y0_33 - y0_42 - y41_43 - y12_16 - y10_46 - y44_48 - y41_61 - y4_21 - y2_51 - y34_49 - y55_62 - y18_22 - y59_60 - y26_35 - y26_44 - y7_40 - y0_1 - y18_49 - y8_14 - y0_10 - y0_19 - y11_19 - y29_55 - y33_34 - y41_47 - y4_7 - y4_16 - y33_52 - y44_52 - y2_46 - y2_55 - y34_35 - y3_29 - y3_38 - y22_51
 Subject to
C1: x0+x1-y0_1 <=1 
C2: x0+x2 <=1 
C3: x0+x3-y0_3 <=1 
C4: x0+x5 <=1 
C5: x0+x6-y0_6 <=1 
C6: x0+x10-y0_10 <=1 
C7: x0+x14-y0_14 <=1 
C8: x0+x15 <=1 
C9: x0+x16-y0_16 <=1 
C10: x0+x17 <=1 
C11: x0+x18 <=1 
C12: x0+x19-y0_19 <=1 
C13: x0+x20-y0_20 <=1 
C14: x0+x22-y0_22 <=1 
C15: x0+x23-y0_23 <=1 
C16: x0+x25-y0_25 <=1 
C17: x0+x26-y0_26 <=1 
C18: x0+x27-y0_27 <=1 
C19: x0+x28 <=1 
C20: x0+x29-y0_29 <=1 
C21: x0+x32-y0_32 <=1 
C22: x0+x33-y0_33 <=1 
C23: x0+x35-y0_35 <=1 
C24: x0+x36-y0_36 <=1 
C25: x0+x37 <=1 
C26: x0+x38 <=1 
C27: x0+x39 <=1 
C28: x0+x40 <=1 
C29: x0+x41 <=1 
C30: x0+x42-y0_42 <=1 
C31: x0+x46-y0_46 <=1 
C32: x0+x47 <=1 
C33: x0+x49 <=1 
C34: x0+x52 <=1 
C35: x0+x53 <=1 
C36: x0+x55-y0_55 <=1 
C37: x0+x57 <=1 
C38: x0+x59-y0_59 <=1 
C39: x0+x60-y0_60 <=1 
C40: x0+x61 <=1 
C41: x0+x62-y0_62 <=1 
C42: x1+x2-y1_2 <=1 
C43: x1+x4-y1_4 <=1 
C44: x1+x5 <=1 
C45: x1+x6 <=1 
C46: x1+x8-y1_8 <=1 
C47: x1+x12-y1_12 <=1 
C48: x1+x13 <=1 
C49: x1+x14 <=1 
C50: x1+x15-y1_15 <=1 
C51: x1+x16-y1_16 <=1 
C52: x1+x17 <=1 
C53: x1+x18-y1_18 <=1 
C54: x1+x21 <=1 
C55: x1+x22 <=1 
C56: x1+x23 <=1 
C57: x1+x24 <=1 
C58: x1+x25-y1_25 <=1 
C59: x1+x27 <=1 
C60: x1+x28-y1_28 <=1 
C61: x1+x29 <=1 
C62: x1+x30 <=1 
C63: x1+x33-y1_33 <=1 
C64: x1+x37-y1_37 <=1 
C65: x1+x38 <=1 
C66: x1+x40-y1_40 <=1 
C67: x1+x41 <=1 
C68: x1+x43 <=1 
C69: x1+x44-y1_44 <=1 
C70: x1+x45 <=1 
C71: x1+x47 <=1 
C72: x1+x49-y1_49 <=1 
C73: x1+x50 <=1 
C74: x1+x51-y1_51 <=1 
C75: x1+x52 <=1 
C76: x1+x53 <=1 
C77: x1+x54 <=1 
C78: x1+x57-y1_57 <=1 
C79: x1+x58 <=1 
C80: x1+x60-y1_60 <=1 
C81: x1+x61 <=1 
C82: x2+x4-y2_4 <=1 
C83: x2+x5 <=1 
C84: x2+x9-y2_9 <=1 
C85: x2+x10 <=1 
C86: x2+x11-y2_11 <=1 
C87: x2+x12 <=1 
C88: x2+x14 <=1 
C89: x2+x15-y2_15 <=1 
C90: x2+x19-y2_19 <=1 
C91: x2+x20-y2_20 <=1 
C92: x2+x21 <=1 
C93: x2+x23 <=1 
C94: x2+x24-y2_24 <=1 
C95: x2+x25 <=1 
C96: x2+x26 <=1 
C97: x2+x29 <=1 
C98: x2+x31-y2_31 <=1 
C99: x2+x32 <=1 
C100: x2+x33-y2_33 <=1 
C101: x2+x35-y2_35 <=1 
C102: x2+x37-y2_37 <=1 
C103: x2+x38-y2_38 <=1 
C104: x2+x39-y2_39 <=1 
C105: x2+x40-y2_40 <=1 
C106: x2+x41-y2_41 <=1 
C107: x2+x45-y2_45 <=1 
C108: x2+x46-y2_46 <=1 
C109: x2+x48 <=1 
C110: x2+x49 <=1 
C111: x2+x50-y2_50 <=1 
C112: x2+x51-y2_51 <=1 
C113: x2+x55-y2_55 <=1 
C114: x2+x56-y2_56 <=1 
C115: x2+x57-y2_57 <=1 
C116: x2+x58 <=1 
C117: x2+x59-y2_59 <=1 
C118: x2+x61-y2_61 <=1 
C119: x2+x62 <=1 
C120: x3+x4-y3_4 <=1 
C121: x3+x5 <=1 
C122: x3+x6 <=1 
C123: x3+x8 <=1 
C124: x3+x11-y3_11 <=1 
C125: x3+x12-y3_12 <=1 
C126: x3+x13-y3_13 <=1 
C127: x3+x18-y3_18 <=1 
C128: x3+x21-y3_21 <=1 
C129: x3+x22-y3_22 <=1 
C130: x3+x24-y3_24 <=1 
C131: x3+x25 <=1 
C132: x3+x29-y3_29 <=1 
C133: x3+x31-y3_31 <=1 
C134: x3+x33 <=1 
C135: x3+x35-y3_35 <=1 
C136: x3+x37 <=1 
C137: x3+x38-y3_38 <=1 
C138: x3+x39 <=1 
C139: x3+x41 <=1 
C140: x3+x42-y3_42 <=1 
C141: x3+x44 <=1 
C142: x3+x45-y3_45 <=1 
C143: x3+x46-y3_46 <=1 
C144: x3+x47 <=1 
C145: x3+x48 <=1 
C146: x3+x51-y3_51 <=1 
C147: x3+x54 <=1 
C148: x3+x59 <=1 
C149: x3+x60-y3_60 <=1 
C150: x3+x62 <=1 
C151: x4+x5-y4_5 <=1 
C152: x4+x6 <=1 
C153: x4+x7-y4_7 <=1 
C154: x4+x8 <=1 
C155: x4+x10-y4_10 <=1 
C156: x4+x11-y4_11 <=1 
C157: x4+x12 <=1 
C158: x4+x13 <=1 
C159: x4+x16-y4_16 <=1 
C160: x4+x17-y4_17 <=1 
C161: x4+x18-y4_18 <=1 
C162: x4+x19-y4_19 <=1 
C163: x4+x21-y4_21 <=1 
C164: x4+x22 <=1 
C165: x4+x23-y4_23 <=1 
C166: x4+x24 <=1 
C167: x4+x26 <=1 
C168: x4+x27 <=1 
C169: x4+x29-y4_29 <=1 
C170: x4+x30-y4_30 <=1 
C171: x4+x31-y4_31 <=1 
C172: x4+x32 <=1 
C173: x4+x35 <=1 
C174: x4+x36-y4_36 <=1 
C175: x4+x38-y4_38 <=1 
C176: x4+x39 <=1 
C177: x4+x43-y4_43 <=1 
C178: x4+x44-y4_44 <=1 
C179: x4+x45-y4_45 <=1 
C180: x4+x46 <=1 
C181: x4+x47-y4_47 <=1 
C182: x4+x49 <=1 
C183: x4+x50 <=1 
C184: x4+x54-y4_54 <=1 
C185: x4+x55-y4_55 <=1 
C186: x4+x56-y4_56 <=1 
C187: x4+x57 <=1 
C188: x4+x58-y4_58 <=1 
C189: x4+x59 <=1 
C190: x4+x60-y4_60 <=1 
C191: x4+x62 <=1 
C192: x5+x6-y5_6 <=1 
C193: x5+x7 <=1 
C194: x5+x8 <=1 
C195: x5+x9-y5_9 <=1 
C196: x5+x10-y5_10 <=1 
C197: x5+x12 <=1 
C198: x5+x13 <=1 
C199: x5+x15 <=1 
C200: x5+x16 <=1 
C201: x5+x17 <=1 
C202: x5+x19 <=1 
C203: x5+x20 <=1 
C204: x5+x21-y5_21 <=1 
C205: x5+x22 <=1 
C206: x5+x24 <=1 
C207: x5+x26 <=1 
C208: x5+x28-y5_28 <=1 
C209: x5+x29-y5_29 <=1 
C210: x5+x30 <=1 
C211: x5+x31-y5_31 <=1 
C212: x5+x32 <=1 
C213: x5+x33 <=1 
C214: x5+x39 <=1 
C215: x5+x40 <=1 
C216: x5+x42 <=1 
C217: x5+x46-y5_46 <=1 
C218: x5+x49-y5_49 <=1 
C219: x5+x52-y5_52 <=1 
C220: x5+x53 <=1 
C221: x5+x54-y5_54 <=1 
C222: x5+x55 <=1 
C223: x5+x57-y5_57 <=1 
C224: x5+x59 <=1 
C225: x5+x61 <=1 
C226: x5+x62-y5_62 <=1 
C227: x6+x8 <=1 
C228: x6+x9-y6_9 <=1 
C229: x6+x10 <=1 
C230: x6+x12 <=1 
C231: x6+x13-y6_13 <=1 
C232: x6+x14-y6_14 <=1 
C233: x6+x16-y6_16 <=1 
C234: x6+x17 <=1 
C235: x6+x18 <=1 
C236: x6+x20-y6_20 <=1 
C237: x6+x22-y6_22 <=1 
C238: x6+x24 <=1 
C239: x6+x25 <=1 
C240: x6+x27-y6_27 <=1 
C241: x6+x29-y6_29 <=1 
C242: x6+x30 <=1 
C243: x6+x31-y6_31 <=1 
C244: x6+x32 <=1 
C245: x6+x34 <=1 
C246: x6+x36-y6_36 <=1 
C247: x6+x37 <=1 
C248: x6+x39-y6_39 <=1 
C249: x6+x42 <=1 
C250: x6+x43 <=1 
C251: x6+x44-y6_44 <=1 
C252: x6+x45-y6_45 <=1 
C253: x6+x46-y6_46 <=1 
C254: x6+x47-y6_47 <=1 
C255: x6+x49 <=1 
C256: x6+x51-y6_51 <=1 
C257: x6+x53 <=1 
C258: x6+x55 <=1 
C259: x6+x57-y6_57 <=1 
C260: x7+x8 <=1 
C261: x7+x9-y7_9 <=1 
C262: x7+x11 <=1 
C263: x7+x12 <=1 
C264: x7+x14 <=1 
C265: x7+x15-y7_15 <=1 
C266: x7+x18-y7_18 <=1 
C267: x7+x20 <=1 
C268: x7+x22 <=1 
C269: x7+x23-y7_23 <=1 
C270: x7+x24-y7_24 <=1 
C271: x7+x25-y7_25 <=1 
C272: x7+x26 <=1 
C273: x7+x28 <=1 
C274: x7+x33-y7_33 <=1 
C275: x7+x34 <=1 
C276: x7+x35-y7_35 <=1 
C277: x7+x36 <=1 
C278: x7+x37-y7_37 <=1 
C279: x7+x38-y7_38 <=1 
C280: x7+x40-y7_40 <=1 
C281: x7+x41 <=1 
C282: x7+x42 <=1 
C283: x7+x43 <=1 
C284: x7+x45-y7_45 <=1 
C285: x7+x46-y7_46 <=1 
C286: x7+x47 <=1 
C287: x7+x48 <=1 
C288: x7+x50 <=1 
C289: x7+x52 <=1 
C290: x7+x53-y7_53 <=1 
C291: x7+x54 <=1 
C292: x7+x55 <=1 
C293: x7+x56 <=1 
C294: x7+x57-y7_57 <=1 
C295: x7+x58-y7_58 <=1 
C296: x7+x60 <=1 
C297: x7+x62 <=1 
C298: x8+x9-y8_9 <=1 
C299: x8+x11-y8_11 <=1 
C300: x8+x14-y8_14 <=1 
C301: x8+x16 <=1 
C302: x8+x19-y8_19 <=1 
C303: x8+x20 <=1 
C304: x8+x22 <=1 
C305: x8+x23 <=1 
C306: x8+x27-y8_27 <=1 
C307: x8+x29-y8_29 <=1 
C308: x8+x30 <=1 
C309: x8+x31-y8_31 <=1 
C310: x8+x32 <=1 
C311: x8+x34-y8_34 <=1 
C312: x8+x35 <=1 
C313: x8+x37 <=1 
C314: x8+x39-y8_39 <=1 
C315: x8+x40 <=1 
C316: x8+x42-y8_42 <=1 
C317: x8+x43-y8_43 <=1 
C318: x8+x44-y8_44 <=1 
C319: x8+x45-y8_45 <=1 
C320: x8+x48 <=1 
C321: x8+x49 <=1 
C322: x8+x50 <=1 
C323: x8+x52-y8_52 <=1 
C324: x8+x53-y8_53 <=1 
C325: x8+x54-y8_54 <=1 
C326: x8+x55-y8_55 <=1 
C327: x8+x59 <=1 
C328: x8+x60-y8_60 <=1 
C329: x8+x61 <=1 
C330: x8+x62 <=1 
C331: x9+x11-y9_11 <=1 
C332: x9+x12-y9_12 <=1 
C333: x9+x13-y9_13 <=1 
C334: x9+x14 <=1 
C335: x9+x16-y9_16 <=1 
C336: x9+x17-y9_17 <=1 
C337: x9+x18-y9_18 <=1 
C338: x9+x21 <=1 
C339: x9+x25-y9_25 <=1 
C340: x9+x26 <=1 
C341: x9+x27 <=1 
C342: x9+x30-y9_30 <=1 
C343: x9+x33 <=1 
C344: x9+x34-y9_34 <=1 
C345: x9+x36 <=1 
C346: x9+x37-y9_37 <=1 
C347: x9+x39 <=1 
C348: x9+x40 <=1 
C349: x9+x41 <=1 
C350: x9+x43 <=1 
C351: x9+x47-y9_47 <=1 
C352: x9+x48-y9_48 <=1 
C353: x9+x49-y9_49 <=1 
C354: x9+x50-y9_50 <=1 
C355: x9+x51-y9_51 <=1 
C356: x9+x52-y9_52 <=1 
C357: x9+x53 <=1 
C358: x9+x54-y9_54 <=1 
C359: x9+x55-y9_55 <=1 
C360: x9+x56-y9_56 <=1 
C361: x9+x57-y9_57 <=1 
C362: x9+x59 <=1 
C363: x9+x60 <=1 
C364: x9+x62 <=1 
C365: x10+x12 <=1 
C366: x10+x13 <=1 
C367: x10+x16 <=1 
C368: x10+x17 <=1 
C369: x10+x18 <=1 
C370: x10+x20-y10_20 <=1 
C371: x10+x23-y10_23 <=1 
C372: x10+x24 <=1 
C373: x10+x26-y10_26 <=1 
C374: x10+x31-y10_31 <=1 
C375: x10+x32 <=1 
C376: x10+x34-y10_34 <=1 
C377: x10+x38-y10_38 <=1 
C378: x10+x40 <=1 
C379: x10+x41 <=1 
C380: x10+x42-y10_42 <=1 
C381: x10+x43-y10_43 <=1 
C382: x10+x45-y10_45 <=1 
C383: x10+x46-y10_46 <=1 
C384: x10+x47-y10_47 <=1 
C385: x10+x48 <=1 
C386: x10+x49 <=1 
C387: x10+x52-y10_52 <=1 
C388: x10+x53-y10_53 <=1 
C389: x10+x55 <=1 
C390: x10+x57-y10_57 <=1 
C391: x10+x58 <=1 
C392: x10+x62 <=1 
C393: x11+x13-y11_13 <=1 
C394: x11+x16 <=1 
C395: x11+x18 <=1 
C396: x11+x19-y11_19 <=1 
C397: x11+x21-y11_21 <=1 
C398: x11+x22-y11_22 <=1 
C399: x11+x24-y11_24 <=1 
C400: x11+x25 <=1 
C401: x11+x26 <=1 
C402: x11+x27 <=1 
C403: x11+x28 <=1 
C404: x11+x32 <=1 
C405: x11+x33 <=1 
C406: x11+x35 <=1 
C407: x11+x36 <=1 
C408: x11+x39-y11_39 <=1 
C409: x11+x40 <=1 
C410: x11+x42 <=1 
C411: x11+x43-y11_43 <=1 
C412: x11+x44 <=1 
C413: x11+x45-y11_45 <=1 
C414: x11+x46-y11_46 <=1 
C415: x11+x48 <=1 
C416: x11+x51 <=1 
C417: x11+x55 <=1 
C418: x11+x58 <=1 
C419: x11+x59-y11_59 <=1 
C420: x11+x60-y11_60 <=1 
C421: x11+x61 <=1 
C422: x11+x62 <=1 
C423: x12+x14-y12_14 <=1 
C424: x12+x15-y12_15 <=1 
C425: x12+x16-y12_16 <=1 
C426: x12+x17 <=1 
C427: x12+x18 <=1 
C428: x12+x21 <=1 
C429: x12+x22-y12_22 <=1 
C430: x12+x23 <=1 
C431: x12+x24-y12_24 <=1 
C432: x12+x25 <=1 
C433: x12+x26-y12_26 <=1 
C434: x12+x27-y12_27 <=1 
C435: x12+x29-y12_29 <=1 
C436: x12+x31-y12_31 <=1 
C437: x12+x32 <=1 
C438: x12+x34-y12_34 <=1 
C439: x12+x36-y12_36 <=1 
C440: x12+x37 <=1 
C441: x12+x41 <=1 
C442: x12+x42-y12_42 <=1 
C443: x12+x46 <=1 
C444: x12+x47 <=1 
C445: x12+x49 <=1 
C446: x12+x50 <=1 
C447: x12+x51-y12_51 <=1 
C448: x12+x52-y12_52 <=1 
C449: x12+x54-y12_54 <=1 
C450: x12+x55-y12_55 <=1 
C451: x12+x57 <=1 
C452: x12+x60 <=1 
C453: x12+x61 <=1 
C454: x12+x62 <=1 
C455: x13+x14-y13_14 <=1 
C456: x13+x18-y13_18 <=1 
C457: x13+x19 <=1 
C458: x13+x22 <=1 
C459: x13+x23 <=1 
C460: x13+x24-y13_24 <=1 
C461: x13+x27 <=1 
C462: x13+x29-y13_29 <=1 
C463: x13+x31 <=1 
C464: x13+x32 <=1 
C465: x13+x35-y13_35 <=1 
C466: x13+x37-y13_37 <=1 
C467: x13+x38-y13_38 <=1 
C468: x13+x39-y13_39 <=1 
C469: x13+x40 <=1 
C470: x13+x42-y13_42 <=1 
C471: x13+x43 <=1 
C472: x13+x44 <=1 
C473: x13+x45-y13_45 <=1 
C474: x13+x46 <=1 
C475: x13+x49 <=1 
C476: x13+x50-y13_50 <=1 
C477: x13+x52-y13_52 <=1 
C478: x13+x55-y13_55 <=1 
C479: x13+x57-y13_57 <=1 
C480: x13+x58-y13_58 <=1 
C481: x13+x59 <=1 
C482: x13+x60-y13_60 <=1 
C483: x13+x61 <=1 
C484: x13+x62 <=1 
C485: x14+x15-y14_15 <=1 
C486: x14+x16-y14_16 <=1 
C487: x14+x17-y14_17 <=1 
C488: x14+x18-y14_18 <=1 
C489: x14+x23-y14_23 <=1 
C490: x14+x24 <=1 
C491: x14+x26 <=1 
C492: x14+x28 <=1 
C493: x14+x29 <=1 
C494: x14+x30 <=1 
C495: x14+x31-y14_31 <=1 
C496: x14+x33 <=1 
C497: x14+x34 <=1 
C498: x14+x35 <=1 
C499: x14+x36 <=1 
C500: x14+x38 <=1 
C501: x14+x39 <=1 
C502: x14+x40-y14_40 <=1 
C503: x14+x41-y14_41 <=1 
C504: x14+x42 <=1 
C505: x14+x43 <=1 
C506: x14+x44 <=1 
C507: x14+x46 <=1 
C508: x14+x48 <=1 
C509: x14+x49-y14_49 <=1 
C510: x14+x50-y14_50 <=1 
C511: x14+x53-y14_53 <=1 
C512: x14+x55 <=1 
C513: x14+x57-y14_57 <=1 
C514: x14+x58 <=1 
C515: x14+x59 <=1 
C516: x14+x60-y14_60 <=1 
C517: x14+x61 <=1 
C518: x14+x62 <=1 
C519: x15+x16-y15_16 <=1 
C520: x15+x17 <=1 
C521: x15+x18-y15_18 <=1 
C522: x15+x19-y15_19 <=1 
C523: x15+x21 <=1 
C524: x15+x22 <=1 
C525: x15+x23-y15_23 <=1 
C526: x15+x24-y15_24 <=1 
C527: x15+x26 <=1 
C528: x15+x27 <=1 
C529: x15+x29-y15_29 <=1 
C530: x15+x30 <=1 
C531: x15+x31-y15_31 <=1 
C532: x15+x32-y15_32 <=1 
C533: x15+x33 <=1 
C534: x15+x34 <=1 
C535: x15+x37 <=1 
C536: x15+x38-y15_38 <=1 
C537: x15+x39-y15_39 <=1 
C538: x15+x40-y15_40 <=1 
C539: x15+x41-y15_41 <=1 
C540: x15+x42 <=1 
C541: x15+x43 <=1 
C542: x15+x44 <=1 
C543: x15+x45 <=1 
C544: x15+x46 <=1 
C545: x15+x47 <=1 
C546: x15+x48 <=1 
C547: x15+x50-y15_50 <=1 
C548: x15+x51 <=1 
C549: x15+x52 <=1 
C550: x15+x54 <=1 
C551: x15+x55-y15_55 <=1 
C552: x15+x56-y15_56 <=1 
C553: x15+x61-y15_61 <=1 
C554: x15+x62 <=1 
C555: x16+x18-y16_18 <=1 
C556: x16+x20 <=1 
C557: x16+x22 <=1 
C558: x16+x25-y16_25 <=1 
C559: x16+x27-y16_27 <=1 
C560: x16+x30-y16_30 <=1 
C561: x16+x32 <=1 
C562: x16+x33 <=1 
C563: x16+x37-y16_37 <=1 
C564: x16+x39 <=1 
C565: x16+x40 <=1 
C566: x16+x41 <=1 
C567: x16+x46-y16_46 <=1 
C568: x16+x48 <=1 
C569: x16+x49 <=1 
C570: x16+x51-y16_51 <=1 
C571: x16+x52-y16_52 <=1 
C572: x16+x54 <=1 
C573: x16+x55-y16_55 <=1 
C574: x16+x56 <=1 
C575: x16+x59-y16_59 <=1 
C576: x16+x62-y16_62 <=1 
C577: x17+x19-y17_19 <=1 
C578: x17+x20 <=1 
C579: x17+x21 <=1 
C580: x17+x22-y17_22 <=1 
C581: x17+x24 <=1 
C582: x17+x25-y17_25 <=1 
C583: x17+x29-y17_29 <=1 
C584: x17+x30 <=1 
C585: x17+x34-y17_34 <=1 
C586: x17+x35-y17_35 <=1 
C587: x17+x36-y17_36 <=1 
C588: x17+x37 <=1 
C589: x17+x38 <=1 
C590: x17+x39 <=1 
C591: x17+x40 <=1 
C592: x17+x41 <=1 
C593: x17+x42-y17_42 <=1 
C594: x17+x43 <=1 
C595: x17+x45 <=1 
C596: x17+x46-y17_46 <=1 
C597: x17+x47 <=1 
C598: x17+x51 <=1 
C599: x17+x52 <=1 
C600: x17+x54-y17_54 <=1 
C601: x17+x55 <=1 
C602: x17+x56-y17_56 <=1 
C603: x17+x57 <=1 
C604: x17+x59-y17_59 <=1 
C605: x18+x21 <=1 
C606: x18+x22-y18_22 <=1 
C607: x18+x23-y18_23 <=1 
C608: x18+x24 <=1 
C609: x18+x27 <=1 
C610: x18+x29-y18_29 <=1 
C611: x18+x31 <=1 
C612: x18+x32 <=1 
C613: x18+x33-y18_33 <=1 
C614: x18+x35 <=1 
C615: x18+x37-y18_37 <=1 
C616: x18+x38 <=1 
C617: x18+x42 <=1 
C618: x18+x43-y18_43 <=1 
C619: x18+x44-y18_44 <=1 
C620: x18+x47-y18_47 <=1 
C621: x18+x48-y18_48 <=1 
C622: x18+x49-y18_49 <=1 
C623: x18+x50-y18_50 <=1 
C624: x18+x52-y18_52 <=1 
C625: x18+x53-y18_53 <=1 
C626: x18+x55-y18_55 <=1 
C627: x18+x57 <=1 
C628: x18+x61 <=1 
C629: x19+x20-y19_20 <=1 
C630: x19+x22-y19_22 <=1 
C631: x19+x23 <=1 
C632: x19+x24 <=1 
C633: x19+x25 <=1 
C634: x19+x26-y19_26 <=1 
C635: x19+x27-y19_27 <=1 
C636: x19+x28 <=1 
C637: x19+x29-y19_29 <=1 
C638: x19+x30 <=1 
C639: x19+x31-y19_31 <=1 
C640: x19+x32-y19_32 <=1 
C641: x19+x33-y19_33 <=1 
C642: x19+x35-y19_35 <=1 
C643: x19+x36-y19_36 <=1 
C644: x19+x37 <=1 
C645: x19+x39-y19_39 <=1 
C646: x19+x40 <=1 
C647: x19+x43-y19_43 <=1 
C648: x19+x44-y19_44 <=1 
C649: x19+x45 <=1 
C650: x19+x46-y19_46 <=1 
C651: x19+x47 <=1 
C652: x19+x48-y19_48 <=1 
C653: x19+x49-y19_49 <=1 
C654: x19+x50-y19_50 <=1 
C655: x19+x51-y19_51 <=1 
C656: x19+x52-y19_52 <=1 
C657: x19+x53 <=1 
C658: x19+x54 <=1 
C659: x19+x55-y19_55 <=1 
C660: x19+x58 <=1 
C661: x19+x59-y19_59 <=1 
C662: x19+x62-y19_62 <=1 
C663: x20+x21-y20_21 <=1 
C664: x20+x22 <=1 
C665: x20+x23-y20_23 <=1 
C666: x20+x25-y20_25 <=1 
C667: x20+x27 <=1 
C668: x20+x31 <=1 
C669: x20+x32 <=1 
C670: x20+x33 <=1 
C671: x20+x37-y20_37 <=1 
C672: x20+x38 <=1 
C673: x20+x41-y20_41 <=1 
C674: x20+x42-y20_42 <=1 
C675: x20+x44 <=1 
C676: x20+x45-y20_45 <=1 
C677: x20+x46-y20_46 <=1 
C678: x20+x48-y20_48 <=1 
C679: x20+x49 <=1 
C680: x20+x50 <=1 
C681: x20+x51 <=1 
C682: x20+x53 <=1 
C683: x20+x54 <=1 
C684: x20+x55-y20_55 <=1 
C685: x20+x56 <=1 
C686: x20+x57 <=1 
C687: x20+x61 <=1 
C688: x21+x22-y21_22 <=1 
C689: x21+x24 <=1 
C690: x21+x25 <=1 
C691: x21+x26 <=1 
C692: x21+x27 <=1 
C693: x21+x28-y21_28 <=1 
C694: x21+x30 <=1 
C695: x21+x31 <=1 
C696: x21+x32-y21_32 <=1 
C697: x21+x34-y21_34 <=1 
C698: x21+x39-y21_39 <=1 
C699: x21+x40-y21_40 <=1 
C700: x21+x41-y21_41 <=1 
C701: x21+x43 <=1 
C702: x21+x44 <=1 
C703: x21+x45 <=1 
C704: x21+x46-y21_46 <=1 
C705: x21+x47 <=1 
C706: x21+x48 <=1 
C707: x21+x52-y21_52 <=1 
C708: x21+x53 <=1 
C709: x21+x54 <=1 
C710: x21+x55-y21_55 <=1 
C711: x21+x57-y21_57 <=1 
C712: x21+x59 <=1 
C713: x21+x60 <=1 
C714: x21+x62 <=1 
C715: x22+x23-y22_23 <=1 
C716: x22+x24 <=1 
C717: x22+x25-y22_25 <=1 
C718: x22+x27-y22_27 <=1 
C719: x22+x30-y22_30 <=1 
C720: x22+x32 <=1 
C721: x22+x33 <=1 
C722: x22+x36-y22_36 <=1 
C723: x22+x40 <=1 
C724: x22+x42 <=1 
C725: x22+x43 <=1 
C726: x22+x44 <=1 
C727: x22+x45 <=1 
C728: x22+x46-y22_46 <=1 
C729: x22+x50-y22_50 <=1 
C730: x22+x51-y22_51 <=1 
C731: x22+x54-y22_54 <=1 
C732: x22+x55 <=1 
C733: x22+x56 <=1 
C734: x22+x57 <=1 
C735: x22+x59-y22_59 <=1 
C736: x23+x24 <=1 
C737: x23+x29 <=1 
C738: x23+x32 <=1 
C739: x23+x33-y23_33 <=1 
C740: x23+x37 <=1 
C741: x23+x40 <=1 
C742: x23+x43 <=1 
C743: x23+x44-y23_44 <=1 
C744: x23+x46 <=1 
C745: x23+x47-y23_47 <=1 
C746: x23+x51-y23_51 <=1 
C747: x23+x52-y23_52 <=1 
C748: x23+x54 <=1 
C749: x23+x57-y23_57 <=1 
C750: x23+x58-y23_58 <=1 
C751: x24+x26 <=1 
C752: x24+x27 <=1 
C753: x24+x28 <=1 
C754: x24+x29-y24_29 <=1 
C755: x24+x30-y24_30 <=1 
C756: x24+x31-y24_31 <=1 
C757: x24+x32-y24_32 <=1 
C758: x24+x33-y24_33 <=1 
C759: x24+x34-y24_34 <=1 
C760: x24+x35 <=1 
C761: x24+x37-y24_37 <=1 
C762: x24+x38 <=1 
C763: x24+x40-y24_40 <=1 
C764: x24+x41-y24_41 <=1 
C765: x24+x43-y24_43 <=1 
C766: x24+x45 <=1 
C767: x24+x46 <=1 
C768: x24+x49-y24_49 <=1 
C769: x24+x50 <=1 
C770: x24+x51-y24_51 <=1 
C771: x24+x53-y24_53 <=1 
C772: x24+x54-y24_54 <=1 
C773: x24+x55-y24_55 <=1 
C774: x24+x57-y24_57 <=1 
C775: x24+x58-y24_58 <=1 
C776: x24+x59-y24_59 <=1 
C777: x24+x60 <=1 
C778: x24+x61 <=1 
C779: x25+x26-y25_26 <=1 
C780: x25+x29 <=1 
C781: x25+x31-y25_31 <=1 
C782: x25+x32-y25_32 <=1 
C783: x25+x35 <=1 
C784: x25+x39 <=1 
C785: x25+x40-y25_40 <=1 
C786: x25+x41 <=1 
C787: x25+x42-y25_42 <=1 
C788: x25+x43-y25_43 <=1 
C789: x25+x47-y25_47 <=1 
C790: x25+x50 <=1 
C791: x25+x51-y25_51 <=1 
C792: x25+x52-y25_52 <=1 
C793: x25+x54-y25_54 <=1 
C794: x25+x60 <=1 
C795: x25+x62 <=1 
C796: x26+x27-y26_27 <=1 
C797: x26+x28-y26_28 <=1 
C798: x26+x29 <=1 
C799: x26+x31-y26_31 <=1 
C800: x26+x32 <=1 
C801: x26+x33 <=1 
C802: x26+x35-y26_35 <=1 
C803: x26+x36-y26_36 <=1 
C804: x26+x37 <=1 
C805: x26+x39-y26_39 <=1 
C806: x26+x40-y26_40 <=1 
C807: x26+x41-y26_41 <=1 
C808: x26+x42-y26_42 <=1 
C809: x26+x44-y26_44 <=1 
C810: x26+x46 <=1 
C811: x26+x48-y26_48 <=1 
C812: x26+x50 <=1 
C813: x26+x52-y26_52 <=1 
C814: x26+x54 <=1 
C815: x26+x60 <=1 
C816: x27+x30-y27_30 <=1 
C817: x27+x31-y27_31 <=1 
C818: x27+x33 <=1 
C819: x27+x35 <=1 
C820: x27+x38-y27_38 <=1 
C821: x27+x39 <=1 
C822: x27+x41 <=1 
C823: x27+x42 <=1 
C824: x27+x43 <=1 
C825: x27+x44 <=1 
C826: x27+x45-y27_45 <=1 
C827: x27+x46 <=1 
C828: x27+x50-y27_50 <=1 
C829: x27+x51 <=1 
C830: x27+x53-y27_53 <=1 
C831: x27+x56-y27_56 <=1 
C832: x27+x57-y27_57 <=1 
C833: x27+x58-y27_58 <=1 
C834: x27+x59-y27_59 <=1 
C835: x27+x61-y27_61 <=1 
C836: x27+x62 <=1 
C837: x28+x29-y28_29 <=1 
C838: x28+x32 <=1 
C839: x28+x34-y28_34 <=1 
C840: x28+x35 <=1 
C841: x28+x36 <=1 
C842: x28+x37 <=1 
C843: x28+x39-y28_39 <=1 
C844: x28+x41 <=1 
C845: x28+x43-y28_43 <=1 
C846: x28+x44-y28_44 <=1 
C847: x28+x47 <=1 
C848: x28+x50-y28_50 <=1 
C849: x28+x52 <=1 
C850: x28+x53 <=1 
C851: x28+x54 <=1 
C852: x28+x55 <=1 
C853: x28+x56 <=1 
C854: x28+x57 <=1 
C855: x28+x61-y28_61 <=1 
C856: x28+x62-y28_62 <=1 
C857: x29+x30-y29_30 <=1 
C858: x29+x32 <=1 
C859: x29+x33-y29_33 <=1 
C860: x29+x36-y29_36 <=1 
C861: x29+x37 <=1 
C862: x29+x38 <=1 
C863: x29+x39 <=1 
C864: x29+x40-y29_40 <=1 
C865: x29+x42-y29_42 <=1 
C866: x29+x44 <=1 
C867: x29+x45 <=1 
C868: x29+x47-y29_47 <=1 
C869: x29+x48-y29_48 <=1 
C870: x29+x50-y29_50 <=1 
C871: x29+x55-y29_55 <=1 
C872: x29+x61 <=1 
C873: x29+x62-y29_62 <=1 
C874: x30+x31 <=1 
C875: x30+x33 <=1 
C876: x30+x34 <=1 
C877: x30+x36 <=1 
C878: x30+x38-y30_38 <=1 
C879: x30+x40 <=1 
C880: x30+x41 <=1 
C881: x30+x42 <=1 
C882: x30+x43-y30_43 <=1 
C883: x30+x44-y30_44 <=1 
C884: x30+x45-y30_45 <=1 
C885: x30+x47 <=1 
C886: x30+x48-y30_48 <=1 
C887: x30+x51 <=1 
C888: x30+x52 <=1 
C889: x30+x53-y30_53 <=1 
C890: x30+x54 <=1 
C891: x30+x55-y30_55 <=1 
C892: x30+x61 <=1 
C893: x30+x62 <=1 
C894: x31+x36-y31_36 <=1 
C895: x31+x37-y31_37 <=1 
C896: x31+x38 <=1 
C897: x31+x39 <=1 
C898: x31+x42 <=1 
C899: x31+x43 <=1 
C900: x31+x44-y31_44 <=1 
C901: x31+x45 <=1 
C902: x31+x48-y31_48 <=1 
C903: x31+x49 <=1 
C904: x31+x50 <=1 
C905: x31+x51 <=1 
C906: x31+x52-y31_52 <=1 
C907: x31+x56-y31_56 <=1 
C908: x31+x58-y31_58 <=1 
C909: x31+x59 <=1 
C910: x31+x61 <=1 
C911: x31+x62 <=1 
C912: x32+x34 <=1 
C913: x32+x35 <=1 
C914: x32+x37-y32_37 <=1 
C915: x32+x39-y32_39 <=1 
C916: x32+x40 <=1 
C917: x32+x41-y32_41 <=1 
C918: x32+x44-y32_44 <=1 
C919: x32+x45-y32_45 <=1 
C920: x32+x48 <=1 
C921: x32+x53 <=1 
C922: x32+x54-y32_54 <=1 
C923: x32+x55 <=1 
C924: x32+x58 <=1 
C925: x32+x60-y32_60 <=1 
C926: x32+x62-y32_62 <=1 
C927: x33+x34-y33_34 <=1 
C928: x33+x35-y33_35 <=1 
C929: x33+x36 <=1 
C930: x33+x37-y33_37 <=1 
C931: x33+x38-y33_38 <=1 
C932: x33+x40-y33_40 <=1 
C933: x33+x41 <=1 
C934: x33+x44-y33_44 <=1 
C935: x33+x45-y33_45 <=1 
C936: x33+x48 <=1 
C937: x33+x49-y33_49 <=1 
C938: x33+x51 <=1 
C939: x33+x52-y33_52 <=1 
C940: x33+x57 <=1 
C941: x33+x59-y33_59 <=1 
C942: x33+x61 <=1 
C943: x33+x62 <=1 
C944: x34+x35-y34_35 <=1 
C945: x34+x36 <=1 
C946: x34+x37 <=1 
C947: x34+x38 <=1 
C948: x34+x39-y34_39 <=1 
C949: x34+x41-y34_41 <=1 
C950: x34+x42 <=1 
C951: x34+x44 <=1 
C952: x34+x48 <=1 
C953: x34+x49-y34_49 <=1 
C954: x34+x51-y34_51 <=1 
C955: x34+x54-y34_54 <=1 
C956: x34+x55 <=1 
C957: x34+x57 <=1 
C958: x34+x58-y34_58 <=1 
C959: x34+x60-y34_60 <=1 
C960: x34+x62 <=1 
C961: x35+x36 <=1 
C962: x35+x37 <=1 
C963: x35+x38 <=1 
C964: x35+x42-y35_42 <=1 
C965: x35+x43-y35_43 <=1 
C966: x35+x44-y35_44 <=1 
C967: x35+x48 <=1 
C968: x35+x49 <=1 
C969: x35+x51-y35_51 <=1 
C970: x35+x53 <=1 
C971: x35+x54-y35_54 <=1 
C972: x35+x55-y35_55 <=1 
C973: x35+x57 <=1 
C974: x35+x58 <=1 
C975: x35+x59-y35_59 <=1 
C976: x36+x37-y36_37 <=1 
C977: x36+x38-y36_38 <=1 
C978: x36+x39 <=1 
C979: x36+x40 <=1 
C980: x36+x42 <=1 
C981: x36+x43 <=1 
C982: x36+x44 <=1 
C983: x36+x45-y36_45 <=1 
C984: x36+x49-y36_49 <=1 
C985: x36+x52-y36_52 <=1 
C986: x36+x54 <=1 
C987: x36+x55 <=1 
C988: x36+x56 <=1 
C989: x36+x57 <=1 
C990: x36+x58 <=1 
C991: x36+x60-y36_60 <=1 
C992: x36+x61 <=1 
C993: x36+x62 <=1 
C994: x37+x38 <=1 
C995: x37+x39 <=1 
C996: x37+x40 <=1 
C997: x37+x41 <=1 
C998: x37+x42 <=1 
C999: x37+x44-y37_44 <=1 
C1000: x37+x48 <=1 
C1001: x37+x49 <=1 
C1002: x37+x53 <=1 
C1003: x37+x54 <=1 
C1004: x37+x55 <=1 
C1005: x37+x58-y37_58 <=1 
C1006: x37+x59 <=1 
C1007: x37+x60-y37_60 <=1 
C1008: x37+x61 <=1 
C1009: x37+x62 <=1 
C1010: x38+x39-y38_39 <=1 
C1011: x38+x40 <=1 
C1012: x38+x41 <=1 
C1013: x38+x43-y38_43 <=1 
C1014: x38+x44 <=1 
C1015: x38+x45 <=1 
C1016: x38+x51-y38_51 <=1 
C1017: x38+x53 <=1 
C1018: x38+x55-y38_55 <=1 
C1019: x38+x57-y38_57 <=1 
C1020: x38+x58 <=1 
C1021: x38+x59-y38_59 <=1 
C1022: x38+x60-y38_60 <=1 
C1023: x38+x61 <=1 
C1024: x38+x62 <=1 
C1025: x39+x40-y39_40 <=1 
C1026: x39+x41-y39_41 <=1 
C1027: x39+x42-y39_42 <=1 
C1028: x39+x43 <=1 
C1029: x39+x46 <=1 
C1030: x39+x47-y39_47 <=1 
C1031: x39+x48 <=1 
C1032: x39+x49-y39_49 <=1 
C1033: x39+x56-y39_56 <=1 
C1034: x39+x57-y39_57 <=1 
C1035: x39+x58 <=1 
C1036: x39+x59-y39_59 <=1 
C1037: x39+x60 <=1 
C1038: x39+x61 <=1 
C1039: x39+x62 <=1 
C1040: x40+x41-y40_41 <=1 
C1041: x40+x42-y40_42 <=1 
C1042: x40+x44-y40_44 <=1 
C1043: x40+x46 <=1 
C1044: x40+x48 <=1 
C1045: x40+x53-y40_53 <=1 
C1046: x40+x55 <=1 
C1047: x40+x56 <=1 
C1048: x40+x58 <=1 
C1049: x40+x59-y40_59 <=1 
C1050: x40+x61-y40_61 <=1 
C1051: x41+x43-y41_43 <=1 
C1052: x41+x44 <=1 
C1053: x41+x45-y41_45 <=1 
C1054: x41+x46-y41_46 <=1 
C1055: x41+x47-y41_47 <=1 
C1056: x41+x48 <=1 
C1057: x41+x54-y41_54 <=1 
C1058: x41+x55-y41_55 <=1 
C1059: x41+x56 <=1 
C1060: x41+x57 <=1 
C1061: x41+x59 <=1 
C1062: x41+x61-y41_61 <=1 
C1063: x41+x62 <=1 
C1064: x42+x43-y42_43 <=1 
C1065: x42+x45-y42_45 <=1 
C1066: x42+x47 <=1 
C1067: x42+x48-y42_48 <=1 
C1068: x42+x49 <=1 
C1069: x42+x52 <=1 
C1070: x42+x53-y42_53 <=1 
C1071: x42+x56 <=1 
C1072: x42+x57 <=1 
C1073: x42+x58 <=1 
C1074: x42+x59 <=1 
C1075: x42+x60-y42_60 <=1 
C1076: x42+x62 <=1 
C1077: x43+x49 <=1 
C1078: x43+x52 <=1 
C1079: x43+x53 <=1 
C1080: x43+x54-y43_54 <=1 
C1081: x43+x55 <=1 
C1082: x43+x56 <=1 
C1083: x43+x59 <=1 
C1084: x43+x60 <=1 
C1085: x44+x47 <=1 
C1086: x44+x48-y44_48 <=1 
C1087: x44+x49 <=1 
C1088: x44+x51 <=1 
C1089: x44+x52-y44_52 <=1 
C1090: x44+x53-y44_53 <=1 
C1091: x44+x54-y44_54 <=1 
C1092: x44+x57 <=1 
C1093: x44+x58 <=1 
C1094: x45+x46-y45_46 <=1 
C1095: x45+x47 <=1 
C1096: x45+x48 <=1 
C1097: x45+x51-y45_51 <=1 
C1098: x45+x53-y45_53 <=1 
C1099: x45+x54 <=1 
C1100: x45+x56 <=1 
C1101: x45+x59-y45_59 <=1 
C1102: x45+x60 <=1 
C1103: x45+x61 <=1 
C1104: x46+x47-y46_47 <=1 
C1105: x46+x49 <=1 
C1106: x46+x51-y46_51 <=1 
C1107: x46+x53 <=1 
C1108: x46+x54 <=1 
C1109: x46+x56-y46_56 <=1 
C1110: x46+x58-y46_58 <=1 
C1111: x47+x48 <=1 
C1112: x47+x49-y47_49 <=1 
C1113: x47+x51 <=1 
C1114: x47+x52-y47_52 <=1 
C1115: x47+x53-y47_53 <=1 
C1116: x47+x55 <=1 
C1117: x47+x56-y47_56 <=1 
C1118: x47+x57-y47_57 <=1 
C1119: x47+x59-y47_59 <=1 
C1120: x47+x60-y47_60 <=1 
C1121: x47+x61-y47_61 <=1 
C1122: x48+x51-y48_51 <=1 
C1123: x48+x54 <=1 
C1124: x48+x56 <=1 
C1125: x48+x58 <=1 
C1126: x48+x60-y48_60 <=1 
C1127: x48+x61-y48_61 <=1 
C1128: x48+x62-y48_62 <=1 
C1129: x49+x50-y49_50 <=1 
C1130: x49+x52-y49_52 <=1 
C1131: x49+x53 <=1 
C1132: x49+x54-y49_54 <=1 
C1133: x49+x55 <=1 
C1134: x49+x56 <=1 
C1135: x49+x57-y49_57 <=1 
C1136: x49+x58-y49_58 <=1 
C1137: x49+x59-y49_59 <=1 
C1138: x49+x60-y49_60 <=1 
C1139: x49+x62 <=1 
C1140: x50+x51-y50_51 <=1 
C1141: x50+x52 <=1 
C1142: x50+x53 <=1 
C1143: x50+x54 <=1 
C1144: x50+x55-y50_55 <=1 
C1145: x50+x56 <=1 
C1146: x50+x58-y50_58 <=1 
C1147: x50+x59 <=1 
C1148: x50+x62-y50_62 <=1 
C1149: x51+x57 <=1 
C1150: x51+x59 <=1 
C1151: x51+x61-y51_61 <=1 
C1152: x51+x62-y51_62 <=1 
C1153: x52+x53 <=1 
C1154: x52+x56 <=1 
C1155: x52+x59 <=1 
C1156: x52+x60 <=1 
C1157: x52+x61 <=1 
C1158: x52+x62 <=1 
C1159: x53+x54 <=1 
C1160: x53+x56-y53_56 <=1 
C1161: x53+x57 <=1 
C1162: x53+x58-y53_58 <=1 
C1163: x53+x59 <=1 
C1164: x53+x60-y53_60 <=1 
C1165: x53+x61-y53_61 <=1 
C1166: x53+x62 <=1 
C1167: x54+x56 <=1 
C1168: x54+x57-y54_57 <=1 
C1169: x54+x58 <=1 
C1170: x54+x60-y54_60 <=1 
C1171: x54+x61-y54_61 <=1 
C1172: x55+x58-y55_58 <=1 
C1173: x55+x59-y55_59 <=1 
C1174: x55+x60 <=1 
C1175: x55+x61-y55_61 <=1 
C1176: x55+x62-y55_62 <=1 
C1177: x56+x59-y56_59 <=1 
C1178: x56+x62-y56_62 <=1 
C1179: x57+x58-y57_58 <=1 
C1180: x57+x59 <=1 
C1181: x57+x62-y57_62 <=1 
C1182: x59+x60-y59_60 <=1 
C1183: x59+x61 <=1 
C1184: x59+x62 <=1 
C1185: x60+x61-y60_61 <=1 
C1186: x60+x62-y60_62 <=1 
C1187: x61+x62 <=1 

binary
x0
x1
x2
x3
x4
x5
x6
x7
x8
x9
x10
x11
x12
x13
x14
x15
x16
x17
x18
x19
x20
x21
x22
x23
x24
x25
x26
x27
x28
x29
x30
x31
x32
x33
x34
x35
x36
x37
x38
x39
x40
x41
x42
x43
x44
x45
x46
x47
x48
x49
x50
x51
x52
x53
x54
x55
x56
x57
x58
x59
x60
x61
x62
