problem_generation/data/GISP/train/er_n=63_m=1187_p=0.60_SET2_setparam=100.00_alpha=0.50_375.sol
objective value:                                 1178
x3                                                  1 	(obj:100)
x17                                                 1 	(obj:100)
x22                                                 1 	(obj:100)
x23                                                 1 	(obj:100)
x27                                                 1 	(obj:100)
x28                                                 1 	(obj:100)
x34                                                 1 	(obj:100)
x49                                                 1 	(obj:100)
x50                                                 1 	(obj:100)
x58                                                 1 	(obj:100)
x60                                                 1 	(obj:100)
x61                                                 1 	(obj:100)
y22_23                                              1 	(obj:-1)
y22_27                                              1 	(obj:-1)
y17_34                                              1 	(obj:-1)
y28_34                                              1 	(obj:-1)
y28_61                                              1 	(obj:-1)
y50_58                                              1 	(obj:-1)
y23_58                                              1 	(obj:-1)
y49_60                                              1 	(obj:-1)
y27_50                                              1 	(obj:-1)
y34_58                                              1 	(obj:-1)
y49_50                                              1 	(obj:-1)
y27_58                                              1 	(obj:-1)
y3_60                                               1 	(obj:-1)
y22_50                                              1 	(obj:-1)
y3_22                                               1 	(obj:-1)
y28_50                                              1 	(obj:-1)
y17_22                                              1 	(obj:-1)
y49_58                                              1 	(obj:-1)
y27_61                                              1 	(obj:-1)
y34_60                                              1 	(obj:-1)
y60_61                                              1 	(obj:-1)
y34_49                                              1 	(obj:-1)
